NAME : compression
TYPE : TSP
DIMENSION : 50
EDGE_WEIGHT_TYPE : EUC_2D
NODE_COORD_SECTION
1 863968 484253
2 534893 810086
3 629712 409867
4 146746 498928
5 138845 343772
6 201911 929918
7 668771 915576
8 391230 404797
9 174857 426193
10 279888 377875
11 850164 369947
12 7675 790961
13 445298 964429
14 362328 928075
15 694366 483528
16 709707 533444
17 698818 775258
18 660327 917398
19 953435 181900
20 889952 108836
21 686130 5528
22 305979 742780
23 568800 205174
24 298436 933440
25 874053 521540
26 137661 363862
27 953426 282101
28 17468 712724
29 896949 527076
30 878189 311197
31 556160 100692
32 784296 394166
33 914396 317420
34 874122 521557
35 662343 698373
36 921666 560317
37 682438 3604
38 824594 876252
39 887807 224585
40 537495 944010
41 132113 394593
42 445854 961138
43 117221 441623
44 340698 405301
45 698305 479045
46 771171 492966
47 138275 343634
48 916147 199409
49 878518 522620
50 499985 499449
EOF
